x04m01e2t4tp2
3075
3075
3075
3075
3075
3075
3075
3167
3277
3277
3484
3489
3489
3489
3489
3489
3489
3489
3489
3640
3640
3640
3640
3640
3640
3640
3640
3640
3687
3687
3687
3687
3687
3687
3687
3687
3687
3687
3687
3687
3687
3687
3687
3687
3687
3687
3687
3687
3687
3687
3687
3687
3687
3687
3687
3687
3687
3687
3687
3687
3687
3687
3687
3687
3687
3687
3687
3687
3687
3687
3687
3772
3772
3772
3772
3772
3772
3772
3772
3772
3772
3772
3772
3772
3772
3772
3772
3772
3772
3772
3772
3772
3772
3772
3772
3772
3772
3772
3772
3816
3816
3816
3816
3816
3816
3816
3816
3816
3816
3816
3816
3816
3816
3816
3816
3831
3831
3831
3831
3831
3831
3831
3831
3831
3831
3831
3831
3831
3831
3831
3831
3831
3831
3831
3831
3831
3831
3831
3831
3831
3847
3847
3847
3847
3847
3847
3847
3847
3847
3847
3847
3847
3847
3847
3847
3847
3847
3847
3847
3847
3903
3903
3903
3903
3903
3903
3903
3903
3903
3903
3903
3903
3903
3903
3903
3903
3903
3903
3903
3903
3903
3903
3903
3903
3903
3903
3903
3929
3929
3929
3929
3929
3929
3929
3929
3929
3929
3929
3929
3929
3929
3929
3929
3929
3929
3929
3929
3929
3929
3929
3929
3929
3929
3929
3929
3929
3929
3929
3929
3929
3929
3929
3929
3929
3929
3929
3929
3929
3929
3929
3929
3929
3929
3929
3951
3951
3951
3951
3951
3951
3951
3951
3951
3951
3951
3951
3951
3951
3951
3951
3951
3951
3951
3951
3951
3951
3951
3951
3951
3951
3951
3951
3951
3951
3951
3951
3951
3951
3951
3951
3951
3951
3951
3951
3951
3951
3951
3951
3951
3951
3951
3951
3951
3951
3951
3951
3951
3951
3951
3951
3951
3951
3951
3951
3951
3951
3951
3951
3951
3951
3951
3951
3951
3951
3951
3951
3951
3951
3951
3951
3951
3951
3951
3951
3951
3951
3951
3951
3951
3951
3951
3951
3951
3951
3951
3951
3951
3951
3951
3951
3951
3951
3951
3951
3951
3951
3951
3951
3951
3951
3951
3951
3951
3951
3951
3951
3951
3951
3951
3951
3951
3951
3951
3951
3951
3951
3951
3951
3951
3951
3951
3951
3951
3951
3951
3951
3951
3951
3951
3951
3951
3951
3951
3951
3951
3951
3951
3951
3951
3951
3951
3951
3951
3951
3951
3951
3951
3951
3951
3951
3951
3951
3951
3951
3951
3951
3951
3951
3951
3951
3951
3951
3951
3951
3951
3951
3951
3951
3951
3951
3951
3951
3951
3951
3951
3951
3951
3951
3951
3951
3951
3951
3951
3951
3951
3951
3951
3951
3951
3951
3951
3951
3951
3951
3951
3951
3951
3951
3951
3951
3951
3951
3951
3951
3951
3951
3951
3951
3951
3951
3951
3951
3951
3951
3951
3951
3951
3951
3951
3951
3951
3951
3951
3951
3951
3951
3951
3951
3951
3951
3951
3951
3951
3951
3951
3951
3951
3951
3951
3951
3951
3951
3951
3951
3951
3951
3951
3951
3951
3951
3951
3951
3951
3951
3951
3951
3951
3951
3951
3951
3951
3951
3951
3951
3951
3951
3951
3951
3951
3951
3951
3951
3951
3951
3951
3951
3951
3951
3951
3951
3951
3951
3951
3951
3951
3951
3951
3951
3951
3951
3951
3951
3951
3951
3951
3951
3951
3951
3951
3951
3951
3951
3951
3951
3951
3951
3951
3951
3964
3964
3964
3964
3964
3964
3964
3964
3964
3964
3964
3964
3964
3964
3964
3964
3964
3964
3964
3964
3964
3964
3964
3964
3964
3964
3964
3964
3964
3964
3964
3964
3964
3964
3964
3964
3964
3964
3964
3964
3964
3964
3964
3964
3964
3964
3964
3964
3964
3964
3964
3964
3964
3964
3964
3964
3964
3964
3964
3964
3964
3964
3964
3964
3964
3964
3964
3964
3964
3964
3964
3964
3964
3964
3964
3964
3964
3964
3964
3964
3964
3964
3964
3964
3964
3964
3964
3964
3964
3964
3964
3964
3964
3964
3964
3964
3964
3964
3964
3964
3964
3964
3964
3964
3964
3964
3964
3964
3964
3964
3964
3964
3964
3964
3964
3964
3964
3964
3964
3964
3964
3964
3964
3964
3964
3964
3964
3964
3964
3964
3964
3964
3964
3964
3964
3964
3964
3964
3964
3964
3964
3964
3964
3964
3964
3964
3964
3964
3964
3964
3964
3964
3964
3964
3964
3964
3964
3964
3964
3964
3964
3964
3964
3964
3964
3964
3964
3964
3964
3964
3964
3964
3964
3964
3964
3964
3964
3964
3964
3964
3964
3964
3964
3964
3964
3964
3964
3964
3964
3964
3964
3964
3964
3964
3964
3964
3964
3964
3964
3964
3964
3964
3964
3964
3964
3964
3964
3964
3964
3964
3964
3964
3964
3964
3964
3964
3964
3964
3964
3964
3964
3964
3964
3964
3964
3964
3964
3964
3964
3964
3964
3964
3964
3964
3964
3964
3964
3964
3964
3964
3964
3964
3964
3964
3964
3964
3964
3964
3964
3964
3964
3964
3964
3964
3964
3964
3964
3964
3964
3964
3964
3964
3964
3964
3964
3964
3964
3964
3964
3964
3964
3964
3964
3964
3964
3964
3964
3964
3964
3964
3964
3964
3964
3964
3964
3964
3964
3964
3964
3964
3964
3964
3964
3964
3964
3964
3964
3964
3964
3964
3964
3964
3964
3964
3964
3964
3964
3964
3964
3964
3964
3964
3964
3964
3964
3964
3964
3964
3964
3964
3964
3964
3964
3964
3964
3964
3964
3964
3964
3964
3964
3964
3964
3964
3964
3964
3964
3964
3964
3964
3964
3964
3964
3964
3964
3964
3964
3964
3964
3964
3964
3964
3964
3964
3964
3964
3964
3964
3964
3964
3964
3964
3964
3964
3964
3964
3964
3964
3964
3964
3964
3964
3964
3964
3964
3964
3964
3964
3964
3964
3964
3964
3964
3964
3964
3964
3964
3964
3964
3964
3964
3964
3964
3964
3964
3964
3964
3964
3964
3964
3964
3964
3964
3964
3964
3964
3964
3964
3964
3964
3964
3964
3964
3964
3964
3964
3964
3964
3964
3964
3964
3964
3964
3964
3964
3964
3964
3964
3964
3964
3964
3964
3964
3964
3964
3964
3964
3964
3964
3964
3964
3964
3964
3964
3964
3964
3964
3964
3964
3964
3964
3964
